(benchmark gametime
:status unknown
:logic QF_AUFBV
:extrafuns ((gtAGG__rtDWork  BitVec[32]))
:extrafuns ((gtINDEX53  BitVec[32]))
:extrafuns ((gtINDEX52  BitVec[32]))
:extrafuns ((gtINDEX51  BitVec[32]))
:extrafuns ((gtINDEX50  BitVec[32]))
:extrafuns ((gtINDEX49  BitVec[32]))
:extrafuns ((gtINDEX48  BitVec[32]))
:extrafuns ((gtINDEX47  BitVec[32]))
:extrafuns ((gtINDEX45  BitVec[32]))
:extrafuns ((gtFIELD__bitsForTID0__gtAGG____anonstruct_D_Work_4  Array[32:32]))
:extrafuns ((gtINDEX46  BitVec[32]))
:extrafuns ((gtINDEX43  BitVec[32]))
:extrafuns ((gtINDEX44  BitVec[32]))
:extrafuns ((gtINDEX41  BitVec[32]))
:extrafuns ((gtINDEX42  BitVec[32]))
:extrafuns ((gtINDEX39  BitVec[32]))
:extrafuns ((gtINDEX40  BitVec[32]))
:extrafuns ((gtINDEX37  BitVec[32]))
:extrafuns ((gtINDEX38  BitVec[32]))
:extrafuns ((gtINDEX35  BitVec[32]))
:extrafuns ((gtINDEX36  BitVec[32]))
:extrafuns ((gtINDEX33  BitVec[32]))
:extrafuns ((gtINDEX34  BitVec[32]))
:extrafuns ((gtINDEX31  BitVec[32]))
:extrafuns ((gtINDEX32  BitVec[32]))
:extrafuns ((gtINDEX29  BitVec[32]))
:extrafuns ((gtINDEX30  BitVec[32]))
:extrafuns ((gtINDEX27  BitVec[32]))
:extrafuns ((gtINDEX28  BitVec[32]))
:extrafuns ((gtINDEX25  BitVec[32]))
:extrafuns ((gtINDEX26  BitVec[32]))
:extrafuns ((gtINDEX23  BitVec[32]))
:extrafuns ((gtINDEX24  BitVec[32]))
:extrafuns ((gtINDEX21  BitVec[32]))
:extrafuns ((gtINDEX22  BitVec[32]))
:extrafuns ((gtINDEX19  BitVec[32]))
:extrafuns ((gtINDEX20  BitVec[32]))
:extrafuns ((gtINDEX17  BitVec[32]))
:extrafuns ((gtINDEX18  BitVec[32]))
:extrafuns ((gtINDEX15  BitVec[32]))
:extrafuns ((gtINDEX16  BitVec[32]))
:extrafuns ((gtINDEX14  BitVec[32]))
:extrafuns ((gtINDEX13  BitVec[32]))
:extrafuns ((gtINDEX12  BitVec[32]))
:extrafuns ((gtINDEX11  BitVec[32]))
:extrafuns ((gtINDEX10  BitVec[32]))
:extrafuns ((gtINDEX8  BitVec[32]))
:extrafuns ((gtINDEX9  BitVec[32]))
:extrafuns ((gtINDEX7  BitVec[32]))
:extrafuns ((gtINDEX6  BitVec[32]))
:extrafuns ((gtINDEX4  BitVec[32]))
:extrafuns ((gtINDEX5  BitVec[32]))
:extrafuns ((gtINDEX2  BitVec[32]))
:extrafuns ((gtINDEX3  BitVec[32]))
:extrafuns ((gtINDEX0  BitVec[32]))
:extrafuns ((gtINDEX1  BitVec[32]))
:extrafuns ((gtFIELD__sh_rst__gtAGG____anonstruct_D_Work_4  Array[32:32]))
:extrafuns ((gtFIELD__sent__gtAGG____anonstruct_D_Work_4  Array[32:32]))
:extrafuns ((gtFIELD__is_Eng__gtAGG____anonstruct_bitsForTID0_5  Array[32:1]))
:extrafuns ((gtFIELD__is_active_Eng__gtAGG____anonstruct_bitsForTID0_5  Array[32:1]))
:extrafuns ((sfEvent_  BitVec[32]))
:extrafuns ((gtFIELD__is_PURI__gtAGG____anonstruct_bitsForTID0_5  Array[32:2]))
:extrafuns ((gtFIELD__is_active_PURI__gtAGG____anonstruct_bitsForTID0_5  Array[32:1]))
:extrafuns ((gtFIELD__is_PVRP__gtAGG____anonstruct_bitsForTID0_5  Array[32:2]))
:extrafuns ((gtFIELD__is_active_PVRP__gtAGG____anonstruct_bitsForTID0_5  Array[32:1]))
:extrafuns ((gtFIELD__is_PPVARP__gtAGG____anonstruct_bitsForTID0_5  Array[32:2]))
:extrafuns ((gtFIELD__is_PPVARP__gtAGG____anonstruct_bitsForTID0_5_1_  Array[32:2]))
:extrafuns ((gtFIELD__is_active_PPVARP__gtAGG____anonstruct_bitsForTID0_5  Array[32:1]))
:extrafuns ((gtFIELD__is_PLRI__gtAGG____anonstruct_bitsForTID0_5  Array[32:2]))
:extrafuns ((gtFIELD__is_active_PLRI__gtAGG____anonstruct_bitsForTID0_5  Array[32:1]))
:extrafuns ((gtFIELD__URIex__gtAGG____anonstruct_bitsForTID0_5  Array[32:1]))
:extrafuns ((gtFIELD__comm__gtAGG____anonstruct_D_Work_4  Array[32:32]))
:extrafuns ((gtFIELD__AVId__gtAGG____anonstruct_D_Work_4  Array[32:32]))
:extrafuns ((gtFIELD__n_t__gtAGG____anonstruct_D_Work_4  Array[32:32]))
:extrafuns ((gtFIELD__temporalCounter_i1__gtAGG____anonstruct_D_Work_4  Array[32:32]))
:extrafuns ((gtFIELD__is_PAVI__gtAGG____anonstruct_bitsForTID0_5  Array[32:3]))
:extrafuns ((gtFIELD__is_active_PAVI__gtAGG____anonstruct_bitsForTID0_5  Array[32:1]))
:extrapreds ((constraint93 ))
:extrapreds ((constraint92 ))
:extrapreds ((constraint91 ))
:extrapreds ((constraint90 ))
:extrapreds ((constraint89 ))
:extrapreds ((constraint88 ))
:extrapreds ((constraint87 ))
:extrapreds ((constraint86 ))
:extrapreds ((constraint85 ))
:extrapreds ((constraint84 ))
:extrapreds ((constraint83 ))
:extrapreds ((constraint82 ))
:extrapreds ((constraint81 ))
:extrapreds ((constraint80 ))
:extrapreds ((constraint79 ))
:extrapreds ((constraint78 ))
:extrapreds ((constraint77 ))
:extrapreds ((constraint76 ))
:extrapreds ((constraint75 ))
:extrapreds ((constraint74 ))
:extrapreds ((constraint73 ))
:extrapreds ((constraint72 ))
:extrapreds ((constraint71 ))
:extrapreds ((constraint70 ))
:extrapreds ((constraint69 ))
:extrapreds ((constraint68 ))
:extrapreds ((constraint67 ))
:extrapreds ((constraint66 ))
:extrapreds ((constraint65 ))
:extrapreds ((constraint64 ))
:extrapreds ((constraint63 ))
:extrapreds ((constraint62 ))
:extrapreds ((constraint61 ))
:extrapreds ((constraint60 ))
:extrapreds ((constraint59 ))
:extrapreds ((constraint58 ))
:extrapreds ((constraint57 ))
:extrapreds ((constraint56 ))
:extrapreds ((constraint55 ))
:extrapreds ((constraint54 ))
:extrapreds ((constraint53 ))
:extrapreds ((constraint52 ))
:extrapreds ((constraint51 ))
:extrapreds ((constraint50 ))
:extrapreds ((constraint49 ))
:extrapreds ((constraint48 ))
:extrapreds ((constraint47 ))
:extrapreds ((constraint46 ))
:extrapreds ((constraint45 ))
:extrapreds ((constraint44 ))
:extrapreds ((constraint43 ))
:extrapreds ((constraint42 ))
:extrapreds ((constraint41 ))
:extrapreds ((constraint40 ))
:extrapreds ((constraint39 ))
:extrapreds ((constraint38 ))
:extrapreds ((constraint37 ))
:extrapreds ((constraint36 ))
:extrapreds ((constraint35 ))
:extrapreds ((constraint34 ))
:extrapreds ((constraint33 ))
:extrapreds ((constraint32 ))
:extrapreds ((constraint31 ))
:extrapreds ((constraint30 ))
:extrapreds ((constraint29 ))
:extrapreds ((constraint28 ))
:extrapreds ((constraint27 ))
:extrapreds ((constraint26 ))
:extrapreds ((constraint25 ))
:extrapreds ((constraint24 ))
:extrapreds ((constraint23 ))
:extrapreds ((constraint22 ))
:extrapreds ((constraint21 ))
:extrapreds ((constraint20 ))
:extrapreds ((constraint19 ))
:extrapreds ((constraint18 ))
:extrapreds ((constraint17 ))
:extrapreds ((constraint16 ))
:extrapreds ((constraint15 ))
:extrapreds ((constraint14 ))
:extrapreds ((constraint13 ))
:extrapreds ((constraint12 ))
:extrapreds ((constraint11 ))
:extrapreds ((constraint10 ))
:extrapreds ((constraint9 ))
:extrapreds ((constraint8 ))
:extrapreds ((constraint7 ))
:extrapreds ((constraint6 ))
:extrapreds ((constraint5 ))
:extrapreds ((constraint4 ))
:extrapreds ((constraint3 ))
:extrapreds ((constraint2 ))
:extrapreds ((constraint1 ))
:extrapreds ((constraint0 ))
:formula
(flet ($x488 (and constraint0 constraint1 constraint2 constraint3 constraint4 constraint5 constraint6 constraint7 constraint8 constraint9 constraint10 constraint11 constraint12 constraint13 constraint14 constraint15 constraint16 constraint17 constraint18 constraint19 constraint20 constraint21 constraint22 constraint23 constraint24 constraint25 constraint26 constraint27 constraint28 constraint29 constraint30 constraint31 constraint32 constraint33 constraint34 constraint35 constraint36 constraint37 constraint38 constraint39 constraint40 constraint41 constraint42 constraint43 constraint44 constraint45 constraint46 constraint47 constraint48 constraint49 constraint50 constraint51 constraint52 constraint53 constraint54 constraint55 constraint56 constraint57 constraint58 constraint59 constraint60 constraint61 constraint62 constraint63 constraint64 constraint65 constraint66 constraint67 constraint68 constraint69 constraint70 constraint71 constraint72 constraint73 constraint74 constraint75 constraint76 constraint77 constraint78 constraint79 constraint80 constraint81 constraint82 constraint83 constraint84 constraint85 constraint86 constraint87 constraint88 constraint89 constraint90 constraint91 constraint92 constraint93))
(flet ($x291 (= gtINDEX46 (select gtFIELD__bitsForTID0__gtAGG____anonstruct_D_Work_4 gtINDEX45)))
(flet ($x287 (= gtINDEX44 (select gtFIELD__bitsForTID0__gtAGG____anonstruct_D_Work_4 gtINDEX43)))
(flet ($x283 (= gtINDEX42 (select gtFIELD__bitsForTID0__gtAGG____anonstruct_D_Work_4 gtINDEX41)))
(flet ($x279 (= gtINDEX40 (select gtFIELD__bitsForTID0__gtAGG____anonstruct_D_Work_4 gtINDEX39)))
(flet ($x275 (= gtINDEX38 (select gtFIELD__bitsForTID0__gtAGG____anonstruct_D_Work_4 gtINDEX37)))
(flet ($x271 (= gtINDEX36 (select gtFIELD__bitsForTID0__gtAGG____anonstruct_D_Work_4 gtINDEX35)))
(flet ($x267 (= gtINDEX34 (select gtFIELD__bitsForTID0__gtAGG____anonstruct_D_Work_4 gtINDEX33)))
(flet ($x263 (= gtINDEX32 (select gtFIELD__bitsForTID0__gtAGG____anonstruct_D_Work_4 gtINDEX31)))
(flet ($x259 (= gtINDEX30 (select gtFIELD__bitsForTID0__gtAGG____anonstruct_D_Work_4 gtINDEX29)))
(flet ($x255 (= gtINDEX28 (select gtFIELD__bitsForTID0__gtAGG____anonstruct_D_Work_4 gtINDEX27)))
(flet ($x251 (= gtINDEX26 (select gtFIELD__bitsForTID0__gtAGG____anonstruct_D_Work_4 gtINDEX25)))
(flet ($x247 (= gtINDEX24 (select gtFIELD__bitsForTID0__gtAGG____anonstruct_D_Work_4 gtINDEX23)))
(flet ($x243 (= gtINDEX22 (select gtFIELD__bitsForTID0__gtAGG____anonstruct_D_Work_4 gtINDEX21)))
(flet ($x239 (= gtINDEX20 (select gtFIELD__bitsForTID0__gtAGG____anonstruct_D_Work_4 gtINDEX19)))
(flet ($x235 (= gtINDEX18 (select gtFIELD__bitsForTID0__gtAGG____anonstruct_D_Work_4 gtINDEX17)))
(flet ($x231 (= gtINDEX16 (select gtFIELD__bitsForTID0__gtAGG____anonstruct_D_Work_4 gtINDEX15)))
(flet ($x222 (= gtINDEX9 (select gtFIELD__bitsForTID0__gtAGG____anonstruct_D_Work_4 gtINDEX8)))
(flet ($x216 (= gtINDEX5 (select gtFIELD__bitsForTID0__gtAGG____anonstruct_D_Work_4 gtINDEX4)))
(flet ($x212 (= gtINDEX3 (select gtFIELD__bitsForTID0__gtAGG____anonstruct_D_Work_4 gtINDEX2)))
(flet ($x208 (= gtINDEX1 (select gtFIELD__bitsForTID0__gtAGG____anonstruct_D_Work_4 gtINDEX0)))
(flet ($x202 (= (select gtFIELD__sh_rst__gtAGG____anonstruct_D_Work_4 gtINDEX53) bv1[32]))
(flet ($x198 (= (select gtFIELD__sent__gtAGG____anonstruct_D_Work_4 gtINDEX52) bv3[32]))
(flet ($x194 (= (select gtFIELD__sent__gtAGG____anonstruct_D_Work_4 gtINDEX51) bv2[32]))
(flet ($x190 (= (select gtFIELD__sent__gtAGG____anonstruct_D_Work_4 gtINDEX50) bv1[32]))
(flet ($x186 (= (select gtFIELD__sent__gtAGG____anonstruct_D_Work_4 gtINDEX49) (bvmul bv4294967295[32] bv1[32])))
(flet ($x180 (= (select gtFIELD__sent__gtAGG____anonstruct_D_Work_4 gtINDEX48) bv9[32]))
(flet ($x175 (= (select gtFIELD__sent__gtAGG____anonstruct_D_Work_4 gtINDEX47) bv4[32]))
(let (?x171 (zero_extend[31] (select gtFIELD__is_Eng__gtAGG____anonstruct_bitsForTID0_5 gtINDEX46)))
(let (?x165 (select gtFIELD__is_active_Eng__gtAGG____anonstruct_bitsForTID0_5 gtINDEX44))
(let (?x161 (select gtFIELD__is_PURI__gtAGG____anonstruct_bitsForTID0_5 gtINDEX42))
(let (?x156 (select gtFIELD__is_PURI__gtAGG____anonstruct_bitsForTID0_5 gtINDEX40))
(let (?x151 (select gtFIELD__is_active_PURI__gtAGG____anonstruct_bitsForTID0_5 gtINDEX38))
(let (?x145 (select gtFIELD__is_PVRP__gtAGG____anonstruct_bitsForTID0_5 gtINDEX36))
(let (?x140 (select gtFIELD__is_active_PVRP__gtAGG____anonstruct_bitsForTID0_5 gtINDEX34))
(let (?x137 (store gtFIELD__is_PPVARP__gtAGG____anonstruct_bitsForTID0_5 gtINDEX32 (extract[1:0] bv0[32])))
(flet ($x342 (iff constraint21 (= gtFIELD__is_PPVARP__gtAGG____anonstruct_bitsForTID0_5_1_ ?x137)))
(let (?x130 (select gtFIELD__is_PPVARP__gtAGG____anonstruct_bitsForTID0_5 gtINDEX30))
(let (?x125 (select gtFIELD__is_PPVARP__gtAGG____anonstruct_bitsForTID0_5 gtINDEX28))
(let (?x120 (select gtFIELD__is_PPVARP__gtAGG____anonstruct_bitsForTID0_5 gtINDEX26))
(let (?x115 (select gtFIELD__is_active_PPVARP__gtAGG____anonstruct_bitsForTID0_5 gtINDEX24))
(let (?x108 (select gtFIELD__is_PLRI__gtAGG____anonstruct_bitsForTID0_5 gtINDEX22))
(let (?x103 (select gtFIELD__is_PLRI__gtAGG____anonstruct_bitsForTID0_5 gtINDEX20))
(let (?x98 (select gtFIELD__is_active_PLRI__gtAGG____anonstruct_bitsForTID0_5 gtINDEX18))
(let (?x91 (zero_extend[31] (select gtFIELD__URIex__gtAGG____anonstruct_bitsForTID0_5 gtINDEX16)))
(flet ($x88 (= (select gtFIELD__comm__gtAGG____anonstruct_D_Work_4 gtINDEX14) bv0[32]))
(flet ($x85 (= (select gtFIELD__sent__gtAGG____anonstruct_D_Work_4 gtINDEX13) bv0[32]))
(let (?x80 (bvadd (select gtFIELD__n_t__gtAGG____anonstruct_D_Work_4 gtINDEX11) (select gtFIELD__AVId__gtAGG____anonstruct_D_Work_4 gtINDEX12)))
(let (?x75 (select gtFIELD__temporalCounter_i1__gtAGG____anonstruct_D_Work_4 gtINDEX10))
(let (?x72 (zero_extend[31] (select gtFIELD__URIex__gtAGG____anonstruct_bitsForTID0_5 gtINDEX9)))
(flet ($x69 (= (select gtFIELD__comm__gtAGG____anonstruct_D_Work_4 gtINDEX7) bv0[32]))
(flet ($x66 (= (select gtFIELD__sent__gtAGG____anonstruct_D_Work_4 gtINDEX6) bv0[32]))
(let (?x61 (zero_extend[29] (select gtFIELD__is_PAVI__gtAGG____anonstruct_bitsForTID0_5 gtINDEX5)))
(let (?x55 (zero_extend[29] (select gtFIELD__is_PAVI__gtAGG____anonstruct_bitsForTID0_5 gtINDEX3)))
(let (?x48 (select gtFIELD__is_active_PAVI__gtAGG____anonstruct_bitsForTID0_5 gtINDEX1))
(flet ($x487 (and (iff constraint0 (not (= sfEvent_ bv8[32]))) (iff constraint1 (not (= (zero_extend[31] ?x48) bv0[32]))) (iff constraint2 (not (= ?x55 bv1[32]))) (iff constraint3 (= ?x61 bv2[32])) (iff constraint4 $x66) (iff constraint5 $x69) (iff constraint6 (= ?x72 bv0[32])) (iff constraint7 (not (= ?x75 ?x80))) (iff constraint8 $x85) (iff constraint9 $x88) (iff constraint10 (not (= ?x91 bv1[32]))) (iff constraint11 (not (= sfEvent_ bv5[32]))) (iff constraint12 (not (= (zero_extend[31] ?x98) bv0[32]))) (iff constraint13 (not (= (zero_extend[30] ?x103) bv1[32]))) (iff constraint14 (= (zero_extend[30] ?x108) bv2[32])) (iff constraint15 (not (= sfEvent_ bv4[32]))) (iff constraint16 (not (= sfEvent_ bv5[32]))) (iff constraint17 (not (= (zero_extend[31] ?x115) bv0[32]))) (iff constraint18 (not (= (zero_extend[30] ?x120) bv1[32]))) (iff constraint19 (not (= (zero_extend[30] ?x125) bv2[32]))) (iff constraint20 (not (= (zero_extend[30] ?x130) bv3[32]))) $x342 (iff constraint22 (not (= (zero_extend[31] ?x140) bv0[32]))) (iff constraint23 (= (zero_extend[30] ?x145) bv1[32])) (iff constraint24 (not (= sfEvent_ bv0[32]))) (iff constraint25 (not (= sfEvent_ bv4[32]))) (iff constraint26 (not (= (zero_extend[31] ?x151) bv0[32]))) (iff constraint27 (not (= (zero_extend[30] ?x156) bv1[32]))) (iff constraint28 (= (zero_extend[30] ?x161) bv2[32])) (iff constraint29 (not (= sfEvent_ bv4[32]))) (iff constraint30 (not (= sfEvent_ bv5[32]))) (iff constraint31 (not (= (zero_extend[31] ?x165) bv0[32]))) (iff constraint32 (= ?x171 bv1[32])) (iff constraint33 (not $x175)) (iff constraint34 (not $x180)) (iff constraint35 (not $x186)) (iff constraint36 (not $x190)) (iff constraint37 (not $x194)) (iff constraint38 (not $x198)) (iff constraint39 (not $x202)) (iff constraint40 (= gtINDEX0 gtAGG__rtDWork)) (iff constraint41 $x208) (iff constraint42 (= gtINDEX2 gtAGG__rtDWork)) (iff constraint43 $x212) (iff constraint44 (= gtINDEX4 gtAGG__rtDWork)) (iff constraint45 $x216) (iff constraint46 (= gtINDEX6 gtAGG__rtDWork)) (iff constraint47 (= gtINDEX7 gtAGG__rtDWork)) (iff constraint48 (= gtINDEX8 gtAGG__rtDWork)) (iff constraint49 $x222) (iff constraint50 (= gtINDEX10 gtAGG__rtDWork)) (iff constraint51 (= gtINDEX11 gtAGG__rtDWork)) (iff constraint52 (= gtINDEX12 gtAGG__rtDWork)) (iff constraint53 (= gtINDEX13 gtAGG__rtDWork)) (iff constraint54 (= gtINDEX14 gtAGG__rtDWork)) (iff constraint55 (= gtINDEX15 gtAGG__rtDWork)) (iff constraint56 $x231) (iff constraint57 (= gtINDEX17 gtAGG__rtDWork)) (iff constraint58 $x235) (iff constraint59 (= gtINDEX19 gtAGG__rtDWork)) (iff constraint60 $x239) (iff constraint61 (= gtINDEX21 gtAGG__rtDWork)) (iff constraint62 $x243) (iff constraint63 (= gtINDEX23 gtAGG__rtDWork)) (iff constraint64 $x247) (iff constraint65 (= gtINDEX25 gtAGG__rtDWork)) (iff constraint66 $x251) (iff constraint67 (= gtINDEX27 gtAGG__rtDWork)) (iff constraint68 $x255) (iff constraint69 (= gtINDEX29 gtAGG__rtDWork)) (iff constraint70 $x259) (iff constraint71 (= gtINDEX31 gtAGG__rtDWork)) (iff constraint72 $x263) (iff constraint73 (= gtINDEX33 gtAGG__rtDWork)) (iff constraint74 $x267) (iff constraint75 (= gtINDEX35 gtAGG__rtDWork)) (iff constraint76 $x271) (iff constraint77 (= gtINDEX37 gtAGG__rtDWork)) (iff constraint78 $x275) (iff constraint79 (= gtINDEX39 gtAGG__rtDWork)) (iff constraint80 $x279) (iff constraint81 (= gtINDEX41 gtAGG__rtDWork)) (iff constraint82 $x283) (iff constraint83 (= gtINDEX43 gtAGG__rtDWork)) (iff constraint84 $x287) (iff constraint85 (= gtINDEX45 gtAGG__rtDWork)) (iff constraint86 $x291) (iff constraint87 (= gtINDEX47 gtAGG__rtDWork)) (iff constraint88 (= gtINDEX48 gtAGG__rtDWork)) (iff constraint89 (= gtINDEX49 gtAGG__rtDWork)) (iff constraint90 (= gtINDEX50 gtAGG__rtDWork)) (iff constraint91 (= gtINDEX51 gtAGG__rtDWork)) (iff constraint92 (= gtINDEX52 gtAGG__rtDWork)) (iff constraint93 (= gtINDEX53 gtAGG__rtDWork))))
(and $x487 $x488)))))))))))))))))))))))))))))))))))))))))))))))))))))))))
)
